2560 1681 802 4243 2564 5125 726 4247 809 5141 
6080 1681 802 4243 6084 5125 726 4247 809 5141 
2560 1681 802 4243 2564 5125 726 4247 809 5141 
2560 1681 802 4243 2564 5125 726 4247 809 5141 
6080 1681 802 4243 6084 5125 726 4247 809 5141 
6080 1681 802 4243 6084 5125 726 4247 809 5141 
6080 1681 802 4243 6084 5125 726 4247 809 5141 
2560 1681 802 4243 2564 5125 726 4247 809 5141 
2560 1681 802 4243 2564 5125 726 4247 809 5141 
2560 1681 802 4243 2564 5125 726 4247 809 5141 
